decision_x1=[0,4];
decision_x2=[0,4];
decision_x3=[0,4];
decision_x4=[0,4];
decision_x5=[0,4];
decision_x6=[0,4];
decision_x7=[0,4];
decision_x8=[0,4];
decision_x9=[0,4];
decision_x10=[0,4];
decision_x11=[0,4];
decision_x12=[0,4];
random_y1=[0,4];
random_y2=[0,4];
random_y3=[0,4];
random_y4=[0,4];
random_y5=[0,4];
random_y6=[0,4];
constraint_x4_x1=[
0,1,3.4|
0,2,4.9|
0,3,1.7|
0,4,9.3|
1,0,7.1|
1,2,6.7|
1,3,9.1|
1,4,4.9|
2,0,1.3|
2,1,0.71|
2,3,2.7|
2,4,1.5|
3,0,5|
3,1,5.4|
3,2,0.61|
3,4,0.17|
4,0,9.9|
4,1,1.8|
4,2,8|
4,3,5.3|
];
constraint_x4_x2=[
0,1,6.6|
0,2,7.6|
0,3,7|
0,4,2.3|
1,0,7|
1,2,1.4|
1,3,0.9|
1,4,3.4|
2,0,7.2|
2,1,5.7|
2,3,1.1|
2,4,8.7|
3,0,8.6|
3,1,1.1|
3,2,5.8|
3,4,0.19|
4,0,0.68|
4,1,3.2|
4,2,9.9|
4,3,4.7|
];
constraint_x5_x1=[
0,1,0.36|
0,2,1|
0,3,3.1|
0,4,0.79|
1,0,3.5|
1,2,9.1|
1,3,2.8|
1,4,8.2|
2,0,1.1|
2,1,1.2|
2,3,1.4|
2,4,5.9|
3,0,8.3|
3,1,6.7|
3,2,0.43|
3,4,0.27|
4,0,0.97|
4,1,7.5|
4,2,1.3|
4,3,8.3|
];
constraint_x6_x2=[
0,1,3.1|
0,2,8.3|
0,3,4.4|
0,4,6.4|
1,0,0.28|
1,2,5.9|
1,3,7.5|
1,4,0.78|
2,0,1.6|
2,1,2.4|
2,3,1.5|
2,4,7.7|
3,0,9.1|
3,1,2.8|
3,2,9.9|
3,4,1.2|
4,0,1.3|
4,1,7.1|
4,2,9.8|
4,3,1.7|
];
constraint_x6_x4=[
0,1,6.4|
0,2,6.7|
0,3,1.6|
0,4,9.4|
1,0,2.3|
1,2,9.5|
1,3,9.9|
1,4,3.8|
2,0,0.61|
2,1,9.3|
2,3,8.6|
2,4,0.37|
3,0,0.98|
3,1,6.7|
3,2,7.3|
3,4,2.8|
4,0,6.9|
4,1,7.9|
4,2,3.4|
4,3,0.43|
];
constraint_x7_x2=[
0,1,3.4|
0,2,0.73|
0,3,2.2|
0,4,7.7|
1,0,8.7|
1,2,7.4|
1,3,4.5|
1,4,4.2|
2,0,2.2|
2,1,9.6|
2,3,10|
2,4,0.74|
3,0,6.9|
3,1,0.72|
3,2,4.4|
3,4,6.6|
4,0,1.8|
4,1,2.3|
4,2,2.2|
4,3,4.5|
];
constraint_x7_x3=[
0,1,9.5|
0,2,8|
0,3,9.6|
0,4,8.5|
1,0,0.67|
1,2,4.4|
1,3,1.7|
1,4,9.3|
2,0,9.2|
2,1,1.8|
2,3,4.7|
2,4,1.8|
3,0,1.5|
3,1,9|
3,2,3.4|
3,4,6.4|
4,0,0.26|
4,1,2.8|
4,2,0.67|
4,3,2.7|
];
constraint_x7_x6=[
0,1,8.6|
0,2,1.4|
0,3,9.8|
0,4,1|
1,0,1.8|
1,2,2.1|
1,3,4|
1,4,9.6|
2,0,7.9|
2,1,1.7|
2,3,5.2|
2,4,3.3|
3,0,9.1|
3,1,1.7|
3,2,8.2|
3,4,3.3|
4,0,2.4|
4,1,3.3|
4,2,6.7|
4,3,8.7|
];
constraint_x8_x2=[
0,1,5.4|
0,2,4.8|
0,3,9.7|
0,4,8.6|
1,0,6.6|
1,2,1.3|
1,3,3.5|
1,4,0.88|
2,0,9.2|
2,1,2.2|
2,3,3.6|
2,4,9.9|
3,0,2|
3,1,6.5|
3,2,8.2|
3,4,4.8|
4,0,6.9|
4,1,6.7|
4,2,7.2|
4,3,6.4|
];
constraint_x8_x3=[
0,1,2.5|
0,2,3.9|
0,3,2.1|
0,4,0.34|
1,0,5.2|
1,2,3.9|
1,3,3.6|
1,4,9.5|
2,0,2.8|
2,1,8.8|
2,3,10|
2,4,1.9|
3,0,6.8|
3,1,3.4|
3,2,3.9|
3,4,5.7|
4,0,3.6|
4,1,2.2|
4,2,1.9|
4,3,3.6|
];
constraint_x8_x6=[
0,1,3.3|
0,2,8.2|
0,3,1.2|
0,4,9.8|
1,0,0.0019|
1,2,3.4|
1,3,8|
1,4,7.7|
2,0,7.5|
2,1,1.9|
2,3,2.6|
2,4,8.7|
3,0,8|
3,1,4.4|
3,2,0.46|
3,4,1.8|
4,0,5.1|
4,1,2.3|
4,2,2.5|
4,3,1.9|
];
constraint_x8_x7=[
0,1,8.5|
0,2,2.3|
0,3,1.4|
0,4,1|
1,0,6.7|
1,2,0.19|
1,3,3|
1,4,5.5|
2,0,7.8|
2,1,4.1|
2,3,5.8|
2,4,4.8|
3,0,7.8|
3,1,3.2|
3,2,0.68|
3,4,3.1|
4,0,0.47|
4,1,2.7|
4,2,1.1|
4,3,9.9|
];
constraint_x9_x1=[
0,1,9.4|
0,2,7.5|
0,3,4|
0,4,9.3|
1,0,2.7|
1,2,2.8|
1,3,3.7|
1,4,3.6|
2,0,1.9|
2,1,5.5|
2,3,5.5|
2,4,3.9|
3,0,5.1|
3,1,4.3|
3,2,9.2|
3,4,1|
4,0,9.4|
4,1,9.4|
4,2,2.9|
4,3,7|
];
constraint_x9_x2=[
0,1,2.8|
0,2,6.2|
0,3,4.6|
0,4,5|
1,0,7.4|
1,2,7.5|
1,3,6.8|
1,4,0.48|
2,0,7.4|
2,1,5.5|
2,3,3.8|
2,4,2.8|
3,0,1.2|
3,1,9.7|
3,2,1.8|
3,4,5.1|
4,0,4.4|
4,1,1.2|
4,2,3|
4,3,0.13|
];
constraint_x9_x4=[
0,1,7.2|
0,2,2.4|
0,3,7.8|
0,4,1.2|
1,0,2.5|
1,2,3.1|
1,3,4.5|
1,4,4.6|
2,0,0.21|
2,1,0.83|
2,3,1.8|
2,4,9.2|
3,0,3.3|
3,1,9|
3,2,3.6|
3,4,5.2|
4,0,7.6|
4,1,9.6|
4,2,8.6|
4,3,4.5|
];
constraint_x9_x6=[
0,1,1.8|
0,2,0.33|
0,3,5|
0,4,9.7|
1,0,4.7|
1,2,3|
1,3,6.6|
1,4,9|
2,0,2.5|
2,1,5|
2,3,6.4|
2,4,9.9|
3,0,4.3|
3,1,5.4|
3,2,9.4|
3,4,6.8|
4,0,1.2|
4,1,4.4|
4,2,4.7|
4,3,8.2|
];
constraint_x9_x7=[
0,1,1.1|
0,2,4.2|
0,3,9.8|
0,4,6.5|
1,0,3.7|
1,2,3.4|
1,3,8.9|
1,4,1.5|
2,0,7.8|
2,1,8.1|
2,3,5.2|
2,4,0.47|
3,0,5.1|
3,1,7.8|
3,2,0.28|
3,4,8.2|
4,0,7.9|
4,1,0.81|
4,2,8.4|
4,3,0.67|
];
constraint_x10_x1=[
0,1,9.9|
0,2,2|
0,3,4.1|
0,4,8.6|
1,0,0.17|
1,2,4.3|
1,3,4.5|
1,4,3.5|
2,0,1.4|
2,1,5.1|
2,3,6.2|
2,4,0.89|
3,0,4.9|
3,1,3.8|
3,2,6|
3,4,1.2|
4,0,5.3|
4,1,0.34|
4,2,3.6|
4,3,6.9|
];
constraint_x10_x3=[
0,1,2.9|
0,2,6.9|
0,3,5.1|
0,4,8.7|
1,0,3.5|
1,2,7.3|
1,3,2.3|
1,4,8.6|
2,0,7.3|
2,1,2|
2,3,7.9|
2,4,5.6|
3,0,3.5|
3,1,7.9|
3,2,2.6|
3,4,4.6|
4,0,5.9|
4,1,3|
4,2,4.8|
4,3,2.1|
];
constraint_x10_x4=[
0,1,2.6|
0,2,0.33|
0,3,3.3|
0,4,9|
1,0,3.3|
1,2,4.8|
1,3,3.8|
1,4,8.4|
2,0,9|
2,1,9.2|
2,3,5|
2,4,0.66|
3,0,4.4|
3,1,0.26|
3,2,8.2|
3,4,3.7|
4,0,1.7|
4,1,1.1|
4,2,3.4|
4,3,4.5|
];
constraint_x10_x5=[
0,1,3.3|
0,2,4.7|
0,3,10|
0,4,3.4|
1,0,4.9|
1,2,3.4|
1,3,1.8|
1,4,2.5|
2,0,2.8|
2,1,0.79|
2,3,3.5|
2,4,7.6|
3,0,2.7|
3,1,5.4|
3,2,7.7|
3,4,6.9|
4,0,1.1|
4,1,7.7|
4,2,2.1|
4,3,2.3|
];
constraint_x10_x6=[
0,1,7.3|
0,2,7.9|
0,3,9.7|
0,4,7.3|
1,0,0.032|
1,2,8.7|
1,3,1.2|
1,4,3.7|
2,0,4.3|
2,1,7.9|
2,3,7.6|
2,4,2.5|
3,0,2|
3,1,7.3|
3,2,5.1|
3,4,6|
4,0,1.3|
4,1,5.8|
4,2,0.27|
4,3,8.5|
];
constraint_x10_x8=[
0,1,9.2|
0,2,6.6|
0,3,5|
0,4,0.64|
1,0,0.65|
1,2,5.6|
1,3,6|
1,4,0.062|
2,0,5.5|
2,1,1.9|
2,3,3.4|
2,4,0.85|
3,0,0.14|
3,1,3.8|
3,2,1.2|
3,4,5.6|
4,0,1.3|
4,1,6.8|
4,2,0.1|
4,3,8.7|
];
constraint_x10_x9=[
0,1,8|
0,2,3.2|
0,3,5|
0,4,2.1|
1,0,1.4|
1,2,6.5|
1,3,6.4|
1,4,4.8|
2,0,4|
2,1,5.1|
2,3,4.6|
2,4,9.1|
3,0,4|
3,1,7.5|
3,2,3.6|
3,4,4.6|
4,0,5|
4,1,8.3|
4,2,2.5|
4,3,4.8|
];
constraint_x11_x2=[
0,1,2.5|
0,2,4.7|
0,3,4|
0,4,5.4|
1,0,7.6|
1,2,6|
1,3,5.3|
1,4,2.4|
2,0,7.3|
2,1,3.4|
2,3,3.5|
2,4,9.8|
3,0,7.3|
3,1,7.7|
3,2,1.4|
3,4,2.6|
4,0,6|
4,1,0.94|
4,2,5.6|
4,3,8.5|
];
constraint_x11_x3=[
0,1,0.32|
0,2,2|
0,3,9.9|
0,4,9.2|
1,0,2.6|
1,2,1.8|
1,3,5.2|
1,4,6|
2,0,2|
2,1,8.7|
2,3,4.4|
2,4,1.9|
3,0,6.8|
3,1,2.6|
3,2,7.5|
3,4,0.98|
4,0,7.6|
4,1,2.7|
4,2,2.3|
4,3,0.14|
];
constraint_x11_x9=[
0,1,2.1|
0,2,7|
0,3,6.4|
0,4,4.2|
1,0,5.4|
1,2,7.1|
1,3,4.1|
1,4,2|
2,0,4.7|
2,1,6.2|
2,3,7.7|
2,4,8.2|
3,0,1.9|
3,1,7.1|
3,2,6.4|
3,4,0.76|
4,0,9.4|
4,1,7.5|
4,2,1.9|
4,3,3.7|
];
constraint_x12_x1=[
0,1,0.29|
0,2,7.3|
0,3,5.6|
0,4,2.1|
1,0,1.5|
1,2,6.6|
1,3,1.9|
1,4,7.2|
2,0,3.8|
2,1,5.4|
2,3,3.4|
2,4,6.1|
3,0,0.95|
3,1,6.7|
3,2,8.2|
3,4,3.3|
4,0,0.084|
4,1,4.5|
4,2,1.9|
4,3,0.9|
];
constraint_x12_x4=[
0,1,1.1|
0,2,2.9|
0,3,6.5|
0,4,3.5|
1,0,4.5|
1,2,4.9|
1,3,0.51|
1,4,9.2|
2,0,4.5|
2,1,8.1|
2,3,10|
2,4,2.5|
3,0,2.1|
3,1,1.4|
3,2,2.2|
3,4,4.3|
4,0,7|
4,1,0.34|
4,2,6|
4,3,4.9|
];
constraint_x12_x8=[
0,1,5.4|
0,2,1.6|
0,3,1.2|
0,4,7|
1,0,0.86|
1,2,1.1|
1,3,3.9|
1,4,6|
2,0,4|
2,1,0.99|
2,3,4.4|
2,4,9.5|
3,0,2.2|
3,1,0.37|
3,2,0.8|
3,4,1.6|
4,0,0.17|
4,1,5.4|
4,2,8.1|
4,3,3.4|
];
constraint_x12_x9=[
0,1,0.27|
0,2,9.7|
0,3,1.3|
0,4,9.5|
1,0,8.1|
1,2,4.8|
1,3,5.7|
1,4,3.2|
2,0,6.6|
2,1,1.2|
2,3,5.9|
2,4,8|
3,0,3.9|
3,1,9.9|
3,2,1.5|
3,4,6|
4,0,9.1|
4,1,7.4|
4,2,6.7|
4,3,0.22|
];
constraint_x12_x10=[
0,1,5.3|
0,2,7.8|
0,3,4.6|
0,4,2.1|
1,0,3.8|
1,2,1.1|
1,3,2|
1,4,7.5|
2,0,2.6|
2,1,5.8|
2,3,5.7|
2,4,0.93|
3,0,5.1|
3,1,3|
3,2,5.2|
3,4,1.9|
4,0,0.15|
4,1,9.6|
4,2,2.3|
4,3,6.3|
];
constraint_x12_x11=[
0,1,8.3|
0,2,2|
0,3,3.6|
0,4,8.6|
1,0,3.1|
1,2,2.9|
1,3,2.8|
1,4,9.3|
2,0,5.8|
2,1,4.5|
2,3,4.9|
2,4,0.93|
3,0,9.2|
3,1,6.3|
3,2,8.1|
3,4,2.9|
4,0,3.4|
4,1,8.6|
4,2,8.9|
4,3,5|
];
constraint_x1_y1=[
0,0,6.5|
0,1,6.2|
0,2,1.3|
0,3,9.3|
0,4,4.1|
1,0,3.7|
1,1,1.6|
1,2,9.5|
1,3,3.5|
1,4,2.7|
2,0,1.3|
2,1,1.3|
2,2,2|
2,3,7.8|
2,4,3.1|
3,0,0.86|
3,1,8.7|
3,2,8.5|
3,3,4.2|
3,4,2|
4,0,1.6|
4,1,2.6|
4,2,0.8|
4,3,5.2|
4,4,4.6|
];
constraint_x2_y2=[
0,0,1.9|
0,1,0.087|
0,2,7.1|
0,3,1.7|
0,4,7.9|
1,0,9.6|
1,1,3.8|
1,2,1.7|
1,3,5|
1,4,4.9|
2,0,1.5|
2,1,9.1|
2,2,8.8|
2,3,8.7|
2,4,8.5|
3,0,9.2|
3,1,4.6|
3,2,0.15|
3,3,3.7|
3,4,2.4|
4,0,0.49|
4,1,7.5|
4,2,0.15|
4,3,6.9|
4,4,4.6|
];
constraint_x3_y3=[
0,0,6.8|
0,1,6.8|
0,2,1.8|
0,3,2.6|
0,4,3.4|
1,0,8.7|
1,1,3.2|
1,2,2.5|
1,3,5.7|
1,4,4.3|
2,0,7.4|
2,1,1.8|
2,2,2|
2,3,1.6|
2,4,6.7|
3,0,6.5|
3,1,7.2|
3,2,3.2|
3,3,1|
3,4,8.8|
4,0,9.9|
4,1,6.4|
4,2,7.3|
4,3,0.34|
4,4,6.2|
];
constraint_x4_y4=[
0,0,5.4|
0,1,0.11|
0,2,0.9|
0,3,6.6|
0,4,3.7|
1,0,5.8|
1,1,5.4|
1,2,0.81|
1,3,4.2|
1,4,1.8|
2,0,3.9|
2,1,9.2|
2,2,6.4|
2,3,5.9|
2,4,0.26|
3,0,3.7|
3,1,4.2|
3,2,8.4|
3,3,7.6|
3,4,0.39|
4,0,0.67|
4,1,3.4|
4,2,9.9|
4,3,5.7|
4,4,8|
];
constraint_x5_y5=[
0,0,0.6|
0,1,2.7|
0,2,8|
0,3,6.9|
0,4,2.7|
1,0,7.9|
1,1,8.5|
1,2,8.4|
1,3,9.6|
1,4,8.4|
2,0,5.5|
2,1,9.5|
2,2,2.1|
2,3,9.6|
2,4,2.9|
3,0,6.9|
3,1,4.3|
3,2,0.57|
3,3,3.8|
3,4,0.45|
4,0,2.4|
4,1,8.6|
4,2,9.5|
4,3,5.6|
4,4,7.4|
];
constraint_x6_y6=[
0,0,5.6|
0,1,1.8|
0,2,6.3|
0,3,2.4|
0,4,2.7|
1,0,2.6|
1,1,2.4|
1,2,5.9|
1,3,4.5|
1,4,0.25|
2,0,9.1|
2,1,0.21|
2,2,9.2|
2,3,1.5|
2,4,5.7|
3,0,6.6|
3,1,1.9|
3,2,3.8|
3,3,8.5|
3,4,3.7|
4,0,4.1|
4,1,5.6|
4,2,5.2|
4,3,0.91|
4,4,0.42|
];
initial_distribution_y1=[0.053,0.36,0.023,0.094,0.47];
initial_distribution_y2=[0.39,0.28,0.026,0.16,0.15];
initial_distribution_y3=[0.082,0.07,0.13,0.4,0.32];
initial_distribution_y4=[0.33,0.017,0.29,0.027,0.34];
initial_distribution_y5=[0.2,0.17,0.32,0.29,0.029];
initial_distribution_y6=[0.012,0.42,0.0098,0.15,0.41];
transition_y1=[
0.18,0.18,0.22,0.18,0.24|
0.056,0.065,0.095,0.63,0.16|
0.16,0.13,0.2,0.32,0.19|
0.031,0.23,0.26,0.037,0.44|
0.23,0.24,0.1,0.23,0.2|
];
transition_y2=[
0.18,0.29,0.16,0.23,0.15|
0.18,0.31,0.12,0.12,0.27|
0.27,0.23,0.011,0.15,0.34|
0.31,0.033,0.29,0.15,0.21|
0.43,0.02,0.088,0.42,0.044|
];
transition_y3=[
0.34,0.034,0.18,0.18,0.27|
0.018,0.13,0.39,0.33,0.12|
0.054,0.076,0.32,0.31,0.24|
0.27,0.076,0.23,0.15,0.28|
0.18,0.02,0.3,0.26,0.23|
];
transition_y4=[
0.39,0.067,0.13,0.014,0.4|
0.3,0.1,0.092,0.27,0.24|
0.22,0.23,0.086,0.35,0.11|
0.17,0.17,0.18,0.31,0.17|
0.11,0.24,0.2,0.021,0.43|
];
transition_y5=[
0.13,0.31,0.079,0.14,0.35|
0.066,0.31,0.26,0.31,0.048|
0.26,0.21,0.17,0.36,0.0061|
0.17,0.23,0.2,0.2,0.21|
0.13,0.11,0.27,0.3,0.19|
];
transition_y6=[
0.17,0.056,0.35,0.14,0.28|
0.14,0.38,0.15,0.32,0.01|
0.11,0.43,0.29,0.097,0.064|
0.2,0.068,0.31,0.11,0.32|
0.39,0.29,0.044,0.049,0.23|
];
